min: c;

c = 3.33559492678571 * u1_t7_h4 + 3.18304158625902 * u1_t7_h5 + 3.90684082930606 * u1_t5_h6 + 3.90684082930606 * u1_t7_h6 + 4.29202553596209 * u1_t5_h7 + 4.29202553596209 * u1_t7_h7 + 4.29202553596209 * u1_t9_h7 + 5.34411616206675 * u1_t5_h8 + 5.34411616206675 * u1_t7_h8 + 5.34411616206675 * u1_t9_h8 + 5.34411616206675 * u1_t10_h8 + 4.52219721130611 * u1_t5_h9 + 4.52219721130611 * u1_t7_h9 + 4.52219721130611 * u1_t9_h9 + 4.52219721130611 * u1_t10_h9 + 5.54366661695272 * u1_t5_h10 + 5.54366661695272 * u1_t7_h10 + 5.54366661695272 * u1_t9_h10 + 5.54366661695272 * u1_t10_h10 + 3.42393966068999 * u1_t5_h11 + 3.42393966068999 * u1_t9_h11 + 3.42393966068999 * u1_t10_h11 + 6.41110931784788 * u1_t4_h12 + 6.41110931784788 * u1_t5_h12 + 6.41110931784788 * u1_t8_h12 + 6.41110931784788 * u1_t9_h12 + 6.41110931784788 * u1_t10_h12 + 4.0997153819109 * u1_t4_h13 + 4.0997153819109 * u1_t8_h13 + 4.0997153819109 * u1_t9_h13 + 4.0997153819109 * u1_t10_h13 + 5.47269556859578 * u1_t4_h14 + 5.47269556859578 * u1_t8_h14 + 5.47269556859578 * u1_t9_h14 + 5.47269556859578 * u1_t10_h14 + 5.84215413820695 * u1_t4_h15 + 5.84215413820695 * u1_t8_h15 + 6.27836394929794 * u1_t4_h16 + 6.27836394929794 * u1_t8_h16 + 6.45287817362296 * u1_t4_h17 + 6.45287817362296 * u1_t8_h17 + 6.70777660899307 * u1_t2_h18 + 6.70777660899307 * u1_t4_h18 + 6.70777660899307 * u1_t6_h18 + 6.70777660899307 * u1_t8_h18 + 5.90263285089527 * u1_t2_h19 + 5.90263285089527 * u1_t3_h19 + 5.90263285089527 * u1_t4_h19 + 5.90263285089527 * u1_t6_h19 + 5.98855589162359 * u1_t1_h20 + 5.98855589162359 * u1_t2_h20 + 5.98855589162359 * u1_t3_h20 + 5.98855589162359 * u1_t4_h20 + 5.98855589162359 * u1_t6_h20 + 5.75452347084445 * u1_t1_h21 + 5.75452347084445 * u1_t2_h21 + 5.75452347084445 * u1_t3_h21 + 5.89286777227716 * u1_t1_h22 + 5.89286777227716 * u1_t2_h22 + 5.26320570663901 * u1_t1_h23 + 5.26320570663901 * u1_t2_h23;
0 <= u1_t1_h20 <= 1;
0 <= u1_t1_h21 <= 1;
0 <= u1_t1_h22 <= 1;
0 <= u1_t1_h23 <= 1;
u1_t1_h20 + u1_t1_h21 + u1_t1_h22 + u1_t1_h23 = 1;
0 <= u1_t2_h18 <= 1;
0 <= u1_t2_h19 <= 1;
0 <= u1_t2_h20 <= 1;
0 <= u1_t2_h21 <= 1;
0 <= u1_t2_h22 <= 1;
0 <= u1_t2_h23 <= 1;
u1_t2_h18 + u1_t2_h19 + u1_t2_h20 + u1_t2_h21 + u1_t2_h22 + u1_t2_h23 = 2;
0 <= u1_t3_h19 <= 1;
0 <= u1_t3_h20 <= 1;
0 <= u1_t3_h21 <= 1;
u1_t3_h19 + u1_t3_h20 + u1_t3_h21 = 1;
0 <= u1_t4_h12 <= 1;
0 <= u1_t4_h13 <= 1;
0 <= u1_t4_h14 <= 1;
0 <= u1_t4_h15 <= 1;
0 <= u1_t4_h16 <= 1;
0 <= u1_t4_h17 <= 1;
0 <= u1_t4_h18 <= 1;
0 <= u1_t4_h19 <= 1;
0 <= u1_t4_h20 <= 1;
u1_t4_h12 + u1_t4_h13 + u1_t4_h14 + u1_t4_h15 + u1_t4_h16 + u1_t4_h17 + u1_t4_h18 + u1_t4_h19 + u1_t4_h20 = 3;
0 <= u1_t5_h6 <= 1;
0 <= u1_t5_h7 <= 1;
0 <= u1_t5_h8 <= 1;
0 <= u1_t5_h9 <= 1;
0 <= u1_t5_h10 <= 1;
0 <= u1_t5_h11 <= 1;
0 <= u1_t5_h12 <= 1;
u1_t5_h6 + u1_t5_h7 + u1_t5_h8 + u1_t5_h9 + u1_t5_h10 + u1_t5_h11 + u1_t5_h12 = 3;
0 <= u1_t6_h18 <= 1;
0 <= u1_t6_h19 <= 1;
0 <= u1_t6_h20 <= 1;
u1_t6_h18 + u1_t6_h19 + u1_t6_h20 = 2;
0 <= u1_t7_h4 <= 1;
0 <= u1_t7_h5 <= 1;
0 <= u1_t7_h6 <= 1;
0 <= u1_t7_h7 <= 1;
0 <= u1_t7_h8 <= 1;
0 <= u1_t7_h9 <= 1;
0 <= u1_t7_h10 <= 1;
u1_t7_h4 + u1_t7_h5 + u1_t7_h6 + u1_t7_h7 + u1_t7_h8 + u1_t7_h9 + u1_t7_h10 = 2;
0 <= u1_t8_h12 <= 1;
0 <= u1_t8_h13 <= 1;
0 <= u1_t8_h14 <= 1;
0 <= u1_t8_h15 <= 1;
0 <= u1_t8_h16 <= 1;
0 <= u1_t8_h17 <= 1;
0 <= u1_t8_h18 <= 1;
u1_t8_h12 + u1_t8_h13 + u1_t8_h14 + u1_t8_h15 + u1_t8_h16 + u1_t8_h17 + u1_t8_h18 = 2;
0 <= u1_t9_h7 <= 1;
0 <= u1_t9_h8 <= 1;
0 <= u1_t9_h9 <= 1;
0 <= u1_t9_h10 <= 1;
0 <= u1_t9_h11 <= 1;
0 <= u1_t9_h12 <= 1;
0 <= u1_t9_h13 <= 1;
0 <= u1_t9_h14 <= 1;
u1_t9_h7 + u1_t9_h8 + u1_t9_h9 + u1_t9_h10 + u1_t9_h11 + u1_t9_h12 + u1_t9_h13 + u1_t9_h14 = 3;
0 <= u1_t10_h8 <= 1;
0 <= u1_t10_h9 <= 1;
0 <= u1_t10_h10 <= 1;
0 <= u1_t10_h11 <= 1;
0 <= u1_t10_h12 <= 1;
0 <= u1_t10_h13 <= 1;
0 <= u1_t10_h14 <= 1;
u1_t10_h8 + u1_t10_h9 + u1_t10_h10 + u1_t10_h11 + u1_t10_h12 + u1_t10_h13 + u1_t10_h14 = 3;
